(declare-const delta_j2 Int)
(declare-const delta_i Int)
(declare-const delta_j1___0 Int)
(assert (exists
         ((|j1___0'?1?1| Int) (|i'?2?2| Int) (|S1,0?3_integralized?3| Int)
            (|j2'?4?4| Int) (KSUM1?5?5 Int) (|K1,0?6?6| Int) (K?7?7 Int)
            (|j2'?8?8| Int) (|i'?9?9| Int) (j2?10?10 Int) (j1___0?11?11 Int)
            (n?12?12 Int) (i?13?13 Int) (m?14?14 Int))
         (and (<= (- j1___0?11?11) 0) (<= (- i?13?13) 0)
                (< (+ (- m?14?14) j1___0?11?11 1) 0) (<= (- K?7?7) 0)
                (<= (- |K1,0?6?6|) 0) (= (+ |K1,0?6?6| (- K?7?7)) 0)
                (<= (+ KSUM1?5?5 (- K?7?7)) 0)
                (= (+ (- |S1,0?3_integralized?3|) |j2'?4?4| (- |K1,0?6?6|)) 0)
                (= (+ (- KSUM1?5?5) |K1,0?6?6|) 0)
                (= (+ |S1,0?3_integralized?3| (- j1___0?11?11) -1) 0)
                (or (and (= K?7?7 0) (= (+ (- |j2'?4?4|) j1___0?11?11 1) 0)
                           (= (+ (- |i'?2?2|) i?13?13) 0))
                      (and (<= (+ (- K?7?7) 1) 0)
                             (<= (+ (- m?14?14) j1___0?11?11 2) 0)
                             (<= (- i?13?13) 0) (<= (- j1___0?11?11) 0)
                             (<= (+ |j2'?4?4| (- m?14?14)) 0)
                             (<= (+ n?12?12 (- |i'?2?2|)) 0)
                             (<= (- |i'?2?2|) 0) (<= (+ (- |j2'?4?4|) 2) 0)))
                (= (+ |j2'?4?4| (- K?7?7) (- j1___0?11?11) -1) 0)
                (<= (- K?7?7) 0) (< (- |j2'?4?4|) 0) (<= (- |i'?2?2|) 0)
                (< (- m?14?14) 0) (<= (+ (- |j2'?4?4|) m?14?14) 0)
                (= (+ |j2'?8?8| (- |j2'?4?4|)) 0)
                (= (+ |j1___0'?1?1| (- j1___0?11?11) -1) 0)
                (= (+ |i'?9?9| (- |i'?2?2|)) 0)
                (= (+ delta_i (- (+ |i'?9?9| (- i?13?13)))) 0)
                (= (+ delta_j1___0 (- (+ |j1___0'?1?1| (- j1___0?11?11)))) 0)
                (= (+ delta_j2 (- (+ |j2'?8?8| (- j2?10?10)))) 0))))
(check-sat)